
Gurobi 11.0.3 (linux64) logging started Sat Nov 23 12:32:39 2024

Set parameter LogFile to value "/home/yihong/Coding/OR_SUC/SUC_results_bigM100000_thread4/case24_ieee_rts_theta0.1_epsilon0.05_gurobi_seed1110000_num_gen100_N_WDR50_load_scaling_factor1_proposed_T24quadra_cost.txt"
Set parameter TimeLimit to value 3600
Gurobi Optimizer version 11.0.3 build v11.0.3rc0 (linux64 - "Ubuntu 20.04.6 LTS")

CPU model: AMD EPYC 7532 32-Core Processor, instruction set [SSE2|AVX|AVX2]
Thread count: 64 physical cores, 128 logical processors, using up to 4 threads

Optimize a model with 51892 rows, 29811 columns and 708694 nonzeros
Model fingerprint: 0x11860f64
Model has 2400 quadratic constraints
Variable types: 27411 continuous, 2400 integer (2400 binary)
Coefficient statistics:
  Matrix range     [3e-04, 2e+03]
  QMatrix range    [2e-03, 8e-03]
  QLMatrix range   [2e-03, 6e+01]
  Objective range  [1e+00, 1e+00]
  Bounds range     [1e+00, 1e+00]
  RHS range        [1e+00, 9e+03]
Presolve removed 42056 rows and 12904 columns
Presolve time: 0.26s
Presolved: 9836 rows, 16907 columns, 62104 nonzeros
Presolved model has 2400 quadratic constraint(s)
Variable types: 14507 continuous, 2400 integer (2400 binary)

Root relaxation: objective 3.196971e+04, 7707 iterations, 0.20 seconds (0.29 work units)

    Nodes    |    Current Node    |     Objective Bounds      |     Work
 Expl Unexpl |  Obj  Depth IntInf | Incumbent    BestBd   Gap | It/Node Time

     0     0 31969.7109    0   24          - 31969.7109      -     -    0s
     0     0 297946.386    0  797          - 297946.386      -     -    1s
     0     0 334752.143    0  732          - 334752.143      -     -    1s
     0     0 584711.660    0  642          - 584711.660      -     -    1s
     0     0 584750.141    0  457          - 584750.141      -     -    1s
     0     0 584924.987    0  419          - 584924.987      -     -    1s
     0     0 584925.704    0  419          - 584925.704      -     -    1s
     0     0 584926.003    0  419          - 584926.003      -     -    1s
     0     0 584928.140    0  419          - 584928.140      -     -    1s
     0     2 584928.140    0  419          - 584928.140      -     -    2s
H  430   250                    585464.80637 584965.850  0.09%  36.5    4s
*  430   250             172    585464.80637 584965.850  0.09%  36.5    4s

Cutting planes:
  Gomory: 4
  Implied bound: 270
  MIR: 38
  Flow cover: 111

Explored 453 nodes (37360 simplex iterations) in 5.21 seconds (6.24 work units)
Thread count was 4 (of 128 available processors)

Solution count 2: 585465 585465 

Optimal solution found (tolerance 1.00e-03)
Warning: max constraint violation (1.6291e-07) exceeds tolerance
Best objective 5.854648063706e+05, best bound 5.849658498819e+05, gap 0.0852%
